10
-1 10 10 20 20 50 50 60 60 90
10 -1 10 25 25 15 45 25 45 25
10 10 -1 30 30 15 15 15 30 30
20 25 30 -1 25 50 50 20 20 25
20 25 30 25 -1 15 15 15 15 15
50 15 15 50 15 -1 25 40 15 15
50 45 15 50 15 25 -1 25 25 25
60 25 15 20 15 40 25 -1 25 10
60 45 30 20 15 15 25 25 -1 10
90 25 30 25 15 15 25 10 10 -1